data/instances/vrp_files/train_21.vrp
NAME : 21
COMMENT : Generated instance No. 21
TYPE : CVRP
DIMENSION : 21
EDGE_WEIGHT_TYPE : EUC_2D
CAPACITY : 30
NODE_COORD_SECTION
 1 268 797
 2 950 151
 3 432 943
 4 419 638
 5 397 274
 6 983 409
 7 894 229
 8 213 31
 9 651 368
 10 864 473
 11 968 185
 12 868 776
 13 770 844
 14 761 626
 15 131 32
 16 920 616
 17 796 481
 18 117 125
 19 685 430
 20 200 491
 21 64 581
DEMAND_SECTION
1 0
2 1
3 8
4 5
5 2
6 2
7 6
8 9
9 1
10 6
11 9
12 8
13 6
14 3
15 8
16 9
17 1
18 9
19 6
20 6
21 4
DEPOT_SECTION
 1
 -1
EOF